f85a1f14b4b842c696f566ac1f18cf86-pulp.mps
*SENSE:Maximize
NAME          MODEL
ROWS
 N  OBJ
 G  C0000000
 L  C0000001
COLUMNS
    MARK      'MARKER'                 'INTORG'
    X0000000  C0000000  -2.400000000000e-01
    X0000000  C0000001   2.400000000000e-01
    MARK      'MARKER'                 'INTEND'
    X0000001  C0000000  -1.000000000000e+00
    X0000001  OBJ        1.000000000000e+00
RHS
    RHS       C0000000   0.000000000000e+00
    RHS       C0000001   8.500000000000e+02
BOUNDS
 LO BND       X0000000   0.000000000000e+00
ENDATA
